RAW/XT/fspd/X-n134-k13.vrp_seed-3.out
10154	5.246	45.943
