RAW/XT/fspd/X-n134-k13.vrp_seed-3.sol
Route #1: 106 45 21 46 99 111 104 57 119
Route #2: 128 115 133 12 85 29 92 31
Route #3: 76 17 80 82 124 33 86 72 3 130 19
Route #4: 132 109 87 74 78 83
Route #5: 95 52 131 11 114 127 125 122 100
Route #6: 118 91 51 16 47 9 2 14
Route #7: 69 1 61 71 49 117 64 48 112
Route #8: 121 7 63 15 81 68 30 23 98 44 8 107 84 70 4 27 22 67 55 126 20 75 28 65 42 53 66 90
Route #9: 56 24 37 88 102 94 93 36 43 120 79
Route #10: 39 73 18 59 96 13 97 5 77 6 108 101
Route #11: 129 116 89 113 25 105 41 34 58 60 40
Route #12: 38 103 10 62 32 54 110 123 26 35 50
Cost 10154.000000